14
4 7
4 8
4 12
4 9
4 0
4 10
4 5
4 1
4 11
4 3
7 12
7 11
7 3
7 6
7 10
7 2
7 5
7 13
7 1
1 3
1 2
1 5
1 10
1 13
1 9
1 0
1 12
3 10
3 6
3 13
3 9
3 2
3 12
3 8
8 13
8 2
8 9
8 10
8 11
8 0
8 6
8 12
13 5
13 2
13 11
13 9
13 0
13 6
6 9
6 5
6 2
6 11
6 12
6 0
9 11
9 10
9 0
9 12
5 2
5 12
5 11
5 0
5 10
12 10
12 11
2 10
2 11
2 0
0 10
0 11
